GLPSOL: GLPK LP/MIP Solver, v4.65
Parameter(s) specified in the command line:
 --model solver_drone.mod --data solver_drone_data_40.dat --output solver_drone_solution_40_7.log
 --log solver_drone_cmd_output_40_7.log --tmlim 55
Reading model section from solver_drone.mod...
41 lines were read
Reading data section from solver_drone_data_40.dat...
117 lines were read
Generating f...
Generating package_deliverd_once...
Generating package_well_delivered...
Generating time_spent_flying...
Generating autonomy_not_exceeded...
Generating check_time_max...
Model has been successfully generated
GLPK Integer Optimizer, v4.65
18800 rows, 18663 columns, 56442 non-zeros
18663 integer variables, 18655 of which are binary
Preprocessing...
144 rows, 18663 columns, 37786 non-zeros
18663 integer variables, 18655 of which are binary
Scaling...
 A: min|aij| =  1.000e+00  max|aij| =  2.856e+03  ratio =  2.856e+03
GM: min|aij| =  4.785e-01  max|aij| =  2.090e+00  ratio =  4.367e+00
EQ: min|aij| =  2.290e-01  max|aij| =  1.000e+00  ratio =  4.367e+00
2N: min|aij| =  1.250e-01  max|aij| =  1.199e+00  ratio =  9.594e+00
Constructing initial basis...
Size of triangular part is 144
Solving LP relaxation...
GLPK Simplex Optimizer, v4.65
144 rows, 18663 columns, 37786 non-zeros
      0: obj =   0.000000000e+00 inf =   2.390e+03 (1)
    194: obj =   1.092571429e+04 inf =   2.009e-13 (0) 1
*   196: obj =   1.092571429e+04 inf =   2.009e-13 (0)
OPTIMAL LP SOLUTION FOUND
Integer optimization begins...
Long-step dual simplex will be used
+   196: mip =     not found yet >=              -inf        (1; 0)
+  3956: >>>>>   1.200800000e+04 >=   1.092600000e+04   9.0% (121; 0)
+  7343: >>>>>   1.195200000e+04 >=   1.092600000e+04   8.6% (213; 17)
+  7944: >>>>>   1.194400000e+04 >=   1.092600000e+04   8.5% (228; 29)
+  8323: >>>>>   1.139200000e+04 >=   1.092600000e+04   4.1% (249; 30)
+  9752: >>>>>   1.136000000e+04 >=   1.092600000e+04   3.8% (263; 213)
+ 10647: >>>>>   1.132800000e+04 >=   1.092600000e+04   3.5% (181; 438)
+ 11064: >>>>>   1.132000000e+04 >=   1.092600000e+04   3.5% (211; 444)
+ 12081: >>>>>   1.129600000e+04 >=   1.092600000e+04   3.3% (228; 517)
+ 12617: >>>>>   1.125600000e+04 >=   1.092600000e+04   2.9% (198; 610)
+ 13732: >>>>>   1.124800000e+04 >=   1.092600000e+04   2.9% (250; 634)
+ 13874: >>>>>   1.122400000e+04 >=   1.092600000e+04   2.7% (238; 687)
+ 14683: >>>>>   1.103200000e+04 >=   1.092600000e+04   1.0% (281; 694)
+ 16596: >>>>>   1.101600000e+04 >=   1.092600000e+04   0.8% (324; 801)
+ 17605: >>>>>   1.100000000e+04 >=   1.092600000e+04   0.7% (382; 809)
+ 18668: >>>>>   1.098400000e+04 >=   1.092600000e+04   0.5% (452; 832)
+ 25004: >>>>>   1.097600000e+04 >=   1.092600000e+04   0.5% (678; 981)
+ 30623: mip =   1.097600000e+04 >=   1.092600000e+04   0.5% (1013; 1040)
+ 34122: >>>>>   1.095200000e+04 >=   1.092600000e+04   0.2% (1152; 1079)
+ 40351: mip =   1.095200000e+04 >=   1.092600000e+04   0.2% (1075; 1747)
+ 46318: mip =   1.095200000e+04 >=   1.092600000e+04   0.2% (1315; 1847)
+ 49832: >>>>>   1.094400000e+04 >=   1.092600000e+04   0.2% (1447; 1879)
+ 56034: mip =   1.094400000e+04 >=   1.092600000e+04   0.2% (1341; 2556)
+ 63099: mip =   1.094400000e+04 >=   1.092600000e+04   0.2% (1531; 2671)
+ 67746: mip =   1.094400000e+04 >=   1.092600000e+04   0.2% (1740; 2705)
+ 70826: mip =   1.094400000e+04 >=   1.092600000e+04   0.2% (1908; 2735)
TIME LIMIT EXCEEDED; SEARCH TERMINATED
Time used:   55.1 secs
Memory used: 62.7 Mb (65702634 bytes)
The package 1 is delivered by the drone 5 to the house 1
The package 2 is delivered by the drone 5 to the house 1
The package 3 is delivered by the drone 5 to the house 2
The package 4 is delivered by the drone 2 to the house 2
The package 5 is delivered by the drone 1 to the house 4
The package 6 is delivered by the drone 4 to the house 4
The package 7 is delivered by the drone 1 to the house 4
The package 8 is delivered by the drone 4 to the house 7
The package 9 is delivered by the drone 2 to the house 7
The package 10 is delivered by the drone 7 to the house 8
The package 11 is delivered by the drone 7 to the house 8
The package 12 is delivered by the drone 2 to the house 8
The package 13 is delivered by the drone 7 to the house 9
The package 14 is delivered by the drone 7 to the house 9
The package 15 is delivered by the drone 1 to the house 10
The package 16 is delivered by the drone 5 to the house 10
The package 17 is delivered by the drone 5 to the house 10
The package 18 is delivered by the drone 4 to the house 12
The package 19 is delivered by the drone 4 to the house 12
The package 20 is delivered by the drone 3 to the house 12
The package 21 is delivered by the drone 2 to the house 13
The package 22 is delivered by the drone 3 to the house 13
The package 23 is delivered by the drone 5 to the house 13
The package 24 is delivered by the drone 7 to the house 15
The package 25 is delivered by the drone 5 to the house 16
The package 26 is delivered by the drone 7 to the house 16
The package 27 is delivered by the drone 1 to the house 17
The package 28 is delivered by the drone 3 to the house 18
The package 29 is delivered by the drone 6 to the house 19
The package 30 is delivered by the drone 3 to the house 19
The package 31 is delivered by the drone 6 to the house 19
The package 32 is delivered by the drone 7 to the house 20
The package 33 is delivered by the drone 2 to the house 21
The package 34 is delivered by the drone 7 to the house 22
The package 35 is delivered by the drone 6 to the house 23
The package 36 is delivered by the drone 1 to the house 23
The package 37 is delivered by the drone 6 to the house 23
The package 38 is delivered by the drone 6 to the house 24
The package 39 is delivered by the drone 6 to the house 24
The package 40 is delivered by the drone 5 to the house 24
The package 41 is delivered by the drone 6 to the house 27
The package 42 is delivered by the drone 7 to the house 27
The package 43 is delivered by the drone 2 to the house 28
The package 44 is delivered by the drone 4 to the house 28
The package 45 is delivered by the drone 3 to the house 28
The package 46 is delivered by the drone 7 to the house 29
The package 47 is delivered by the drone 6 to the house 29
The package 48 is delivered by the drone 1 to the house 29
The package 49 is delivered by the drone 1 to the house 30
The package 50 is delivered by the drone 2 to the house 30
The package 51 is delivered by the drone 2 to the house 32
The package 52 is delivered by the drone 6 to the house 32
The package 53 is delivered by the drone 5 to the house 32
The package 54 is delivered by the drone 3 to the house 33
The package 55 is delivered by the drone 3 to the house 33
The package 56 is delivered by the drone 2 to the house 33
The package 57 is delivered by the drone 7 to the house 34
The package 58 is delivered by the drone 6 to the house 34
The package 59 is delivered by the drone 4 to the house 35
The package 60 is delivered by the drone 7 to the house 35
The package 61 is delivered by the drone 4 to the house 37
The package 62 is delivered by the drone 3 to the house 37
The package 63 is delivered by the drone 1 to the house 38
The package 64 is delivered by the drone 3 to the house 38
The package 65 is delivered by the drone 6 to the house 38
Model has been successfully processed
Writing MIP solution to 'solver_drone_solution_40_7.log'...
